42003
1 1 0 0 1 1 0 1 1 0 0 1 1 1 1 0 1 0 0 1 1 1 0 1 1 1 1 1 1 0 
7 19 21 27 21 12 21 27 27 28 4 28 13 1 28 7 1 20 27 0 27 16 5 24 23 27 27 19 4 21 19 19 4 16 27 12 20 8 24 16 7 8 12 4 8 19 13 21 19 14 24 16 24 16 8 12 11 8 27 7 4 0 7 8 13 11 5 14 28 25 7 12 19 8 23 23 20 23 8 16 23 0 26 25 4 13 19 5 27 7 28 19 25 25 0 13 11 12 0 28 28 21 25 7 4 0 4 24 27 13 19 4 27 12 12 8 28 7 14 8 26 11 28 19 26 16 21 11 26 0 28 24 25 20 23 8 1 13 28 14 12 27 11 11 25 5 24 21 27 25 24 0 23 0 8 11 5 16 13 13 13 27 23 24 5 27 5 4 1 21 1 20 19 14 26 21 0 20 4 20 5 21 21 19 12 8 28 23 0 21 21 21 19 4 7 12 7 21 23 19 
